num_features = 28;
num_usage_limits = 4;
num_plans = 3;
num_addons = 3;

features = ["usAndCanadaCalling","usAndCanadaMessaging","internationalCalling","internationalMessaging","groupMessaging","voicemailToText","phoneNumbers","portPhoneNumbersFromOtherCarriers","callRecording","sharedPhoneNumbers","snippets","autoReplies","standardAutoAtendant","advancedAutoAtendant","callTransfers","emailIntegration","slackIntegration","zapierIntegration","smsViaZapier","hubSpotCRMIntegration","adminDashboard","analytics","reporting","auditLog","emailSupport","smsSupport","prioritySupport","dedicatedAccountManager"];
usage_limits = ["phoneNumbersLimit","usAndCanadCallsLimit","usAndCanadaMessagesLimit","smsViaZapierAddonLimit"];
plans = ["STANDARD","PREMIUM","ENTERPRISE"];
addons = ["aditionalPhoneNumbers","internationalCallingAndMessaging","smsViaZapierAddon"];

plans_prices = [10,25,250];
addons_prices = [5,100,0.01];

linked_features = array2d(USAGE_LIMITS, FEATURES, [
    % phoneNumbersLimit
    0,0,0,0,0,0,1,0,0,0,0,0,0,0,0,0,0,0,0,0,0,0,0,0,0,0,0,0,
    % usAndCanadCallsLimit
    1,0,0,0,0,0,0,0,0,0,0,0,0,0,0,0,0,0,0,0,0,0,0,0,0,0,0,0,
    % usAndCanadaMessagesLimit
    0,1,0,0,0,0,0,0,0,0,0,0,0,0,0,0,0,0,0,0,0,0,0,0,0,0,0,0,
    % smsViaZapierAddonLimit
    0,0,0,0,0,0,0,0,0,0,0,0,0,0,0,0,0,0,1,0,0,0,0,0,0,0,0,0
]);

plans_features = array2d(PLANS, FEATURES, [
    % STANDARD
    1,1,0,0,1,1,1,1,1,1,1,1,1,0,0,1,1,1,0,0,1,0,0,0,1,1,0,0,
    % PREMIUM
    1,1,0,0,1,1,1,1,1,1,1,1,1,1,1,1,1,1,0,1,1,1,1,0,1,1,1,0,
    % ENTERPRISE
    1,1,0,0,1,1,1,1,1,1,1,1,1,1,1,1,1,1,0,1,1,1,1,1,1,1,1,1
]);
plans_usage_limits = array2d(PLANS, USAGE_LIMITS, [
    % STANDARD
    1,10000000000000,10000000000000,0,
    % PREMIUM
    1,10000000000000,10000000000000,0,
    % ENTERPRISE
    1,10000000000000,10000000000000,0
]);

addons_features = array2d(ADDONS, FEATURES, [
    % aditionalPhoneNumbers
    0,0,0,0,0,0,0,0,0,0,0,0,0,0,0,0,0,0,0,0,0,0,0,0,0,0,0,0,
    % internationalCallingAndMessaging
    0,0,1,1,0,0,0,0,0,0,0,0,0,0,0,0,0,0,0,0,0,0,0,0,0,0,0,0,
    % smsViaZapierAddon
    0,0,0,0,0,0,0,0,0,0,0,0,0,0,0,0,0,0,1,0,0,0,0,0,0,0,0,0
]);
addons_usage_limits = array2d(ADDONS, USAGE_LIMITS, [
    % aditionalPhoneNumbers
    0,0,0,0,
    % internationalCallingAndMessaging
    0,0,0,0,
    % smsViaZapierAddon
    0,0,0,0
]);
addons_usage_limits_extensions = array2d(ADDONS, USAGE_LIMITS, [
    % aditionalPhoneNumbers
    1,0,0,0,
    % internationalCallingAndMessaging
    0,0,0,0,
    % smsViaZapierAddon
    0,0,0,1
]);
addons_available_for = array2d(ADDONS, PLANS, [
    % aditionalPhoneNumbers
    1,1,1,
    % internationalCallingAndMessaging
    1,1,1,
    % smsViaZapierAddon
    1,1,1
]);
addons_depends_on = array2d(ADDONS, ADDONS, [
    % aditionalPhoneNumbers
    0,0,0,
    % internationalCallingAndMessaging
    0,0,0,
    % smsViaZapierAddon
    0,0,0
]);
